results/x-long/X-n129-k18.vrp_seed-7.out
28948	1091
