results/x-long/X-n129-k18.vrp_seed-7.vrp.sol
Route #1: 3
Route #2: 82 124 7 9 63 20
Route #3: 47 127 28 118 38
Route #4: 78 50 52 27 113 88 86
Route #5: 37 8 120 51 109 83
Route #6: 15 66 89 103 75 91
Route #7: 87 121 94 111 4 98 68 80
Route #8: 93 39 25 84 43 30 67
Route #9: 16 12 96 95 116 92 49 73 114 32
Route #10: 119 5 106 122 115 117 74
Route #11: 54 22 46 33 21 34 2 48 6 19
Route #12: 62 56 13 57 35 77 60
Route #13: 64 18 59 23 1 44 90
Route #14: 102 112 72 100 108 26 123
Route #15: 24 125 31 97 69 42 99 14 70 53
Route #16: 126 11 85 61 41 55 40 58 101 17 110
Route #17: 128 81 36 29 45
Route #18: 107 65 105 76 79 10 104 71
Cost 28948.000000